742,791
655,419
657,389
321,46
317,142
792,64
639,364
611,503
427,152
427,660
644,169
584,476
918,443
450,-48
663,463
586,219
491,780
738,388
694,380
773,691
411,406
755,634
269,107
994,507
721,486
200,161
1036,350
898,-21
609,458
487,265
